
        $ From http://www.csplib.org/Problems/prob009/data/helmut.pdf
        $ Problem number 20
        $ Sequence length : 23
        language ESSENCE' 1.0
        letting sizemaster be 257
        letting sizes be sequence(2,3,9,11,14,15,17,20,22,24,28,29,32,33,49,55,57,60,63,66,79,123,134)
        